SDVRP instances/custom_instances/p03_14_split0.vrp
NAME:p03_14_split
BEST_KNOWN: 0
COMMENT: 0
DIMENSION: 476
CAPACITY: 200
EDGE_WEIGHT_FORMAT: FUNCTION
EDGE_WEIGHT_TYPE: EXACT_2D
NODE_COORD_SECTION
1 0.00000 0.00000
2 -20 -47
3 -20 -47
4 -20 -47
5 -20 -47
6 47 -47
7 47 -47
8 47 -47
9 5 44
10 5 44
11 5 44
12 5 44
13 -7 3
14 -7 3
15 -7 3
16 -7 3
17 -7 3
18 -22 48
19 -22 48
20 -22 48
21 -22 48
22 -22 48
23 -36 -2
24 -36 -2
25 -36 -2
26 -36 -2
27 -36 -2
28 6 6
29 6 6
30 6 6
31 6 6
32 -7 -9
33 -7 -9
34 -7 -9
35 -7 -9
36 -7 -9
37 -7 -9
38 11 -37
39 11 -37
40 11 -37
41 11 -37
42 -3 40
43 -3 40
44 -33 -6
45 -33 -6
46 -33 -6
47 -5 -8
48 -5 -8
49 -5 -8
50 -5 -8
51 -5 -8
52 -44 -42
53 -44 -42
54 -44 -42
55 -44 -42
56 -44 -42
57 -37 -34
58 -37 -34
59 -37 -34
60 -37 -34
61 -37 -34
62 44 -21
63 44 -21
64 44 -21
65 44 -21
66 44 -21
67 44 -21
68 44 -21
69 -22 -36
70 -22 -36
71 -22 -36
72 -48 36
73 -48 36
74 -48 36
75 -48 36
76 -10 30
77 -10 30
78 -10 30
79 -10 30
80 -10 30
81 42 40
82 42 40
83 42 40
84 42 40
85 42 40
86 42 40
87 36 6
88 36 6
89 36 6
90 36 6
91 42 20
92 42 20
93 27 3
94 27 3
95 27 3
96 27 3
97 27 3
98 -37 11
99 -37 11
100 -37 11
101 -33 -3
102 -33 -3
103 -33 -3
104 -33 -3
105 -33 -3
106 -33 -3
107 -25 -40
108 -25 -40
109 -25 -40
110 -35 22
111 -35 22
112 -35 22
113 -24 29
114 -24 29
115 -24 29
116 -24 29
117 -24 29
118 -24 29
119 29 -15
120 29 -15
121 29 -15
122 29 -15
123 29 -15
124 9 8
125 9 8
126 9 8
127 9 8
128 47 13
129 47 13
130 47 13
131 47 13
132 -8 -1
133 -8 -1
134 -8 -1
135 -8 -1
136 -8 -1
137 -8 -1
138 -26 18
139 -26 18
140 -26 18
141 -26 18
142 -26 18
143 -26 18
144 -26 18
145 -22 38
146 -22 38
147 -22 38
148 -22 38
149 -32 10
150 -32 10
151 -32 10
152 -32 10
153 0 47
154 0 47
155 0 47
156 0 47
157 30 -33
158 30 -33
159 15 -24
160 15 -24
161 15 -24
162 15 -24
163 -13 -23
164 -13 -23
165 -13 -23
166 -10 -44
167 -10 -44
168 -10 -44
169 -10 -44
170 -10 -44
171 -10 -44
172 -10 -44
173 39 -28
174 39 -28
175 39 -28
176 -47 -31
177 -47 -31
178 -47 -31
179 -47 -31
180 -47 -31
181 -47 -31
182 -3 -16
183 -3 -16
184 -3 -16
185 -3 -16
186 -3 -16
187 38 -30
188 38 -30
189 7 -26
190 7 -26
191 7 -26
192 -48 -41
193 -48 -41
194 -48 -41
195 -48 -41
196 -48 -41
197 -48 -41
198 -48 -41
199 -48 -41
200 0 46
201 0 46
202 0 46
203 0 46
204 -44 34
205 -44 34
206 -44 34
207 -44 34
208 -44 34
209 -44 34
210 14 15
211 14 15
212 14 15
213 14 15
214 28 14
215 28 14
216 28 14
217 28 14
218 -38 -1
219 -38 -1
220 -38 -1
221 -38 -1
222 -38 -1
223 -38 -1
224 33 34
225 33 34
226 33 34
227 26 36
228 26 36
229 26 36
230 26 36
231 26 36
232 18 -16
233 18 -16
234 18 -16
235 18 -16
236 18 -16
237 -39 17
238 -39 17
239 -39 17
240 -39 17
241 -39 17
242 -39 17
243 -28 3
244 -28 3
245 -28 3
246 -28 3
247 -28 3
248 -28 3
249 -45 41
250 -45 41
251 -45 41
252 -45 41
253 -26 -50
254 -26 -50
255 -26 -50
256 44 -8
257 44 -8
258 44 -8
259 13 9
260 13 9
261 13 9
262 13 9
263 13 9
264 3 -36
265 3 -36
266 3 -36
267 3 -36
268 3 -36
269 3 -36
270 47 -35
271 47 -35
272 47 -35
273 47 -35
274 47 -35
275 -47 43
276 -47 43
277 -47 43
278 -47 43
279 -47 43
280 -47 43
281 -47 43
282 21 -19
283 21 -19
284 21 -19
285 21 -19
286 21 -19
287 21 -19
288 -6 33
289 -6 33
290 -6 33
291 -6 33
292 -6 33
293 -11 -27
294 -11 -27
295 -11 -27
296 -11 -27
297 34 -38
298 34 -38
299 34 -38
300 34 -38
301 34 -38
302 44 -13
303 44 -13
304 44 -13
305 44 -13
306 23 17
307 23 17
308 23 17
309 23 17
310 23 17
311 23 17
312 -18 -23
313 -18 -23
314 -18 -23
315 -18 -23
316 -18 -23
317 -49 12
318 -49 12
319 -49 12
320 -49 12
321 -49 12
322 -49 12
323 -49 12
324 41 30
325 41 30
326 41 30
327 41 30
328 41 30
329 41 30
330 41 30
331 7 5
332 7 5
333 7 5
334 7 5
335 7 5
336 7 5
337 3 34
338 3 34
339 3 34
340 3 34
341 -27 -50
342 -27 -50
343 -27 -50
344 -27 -50
345 -27 -50
346 -27 -50
347 -27 -50
348 -46 -28
349 -46 -28
350 -46 -28
351 -46 -28
352 -46 -28
353 -46 -28
354 24 28
355 24 28
356 24 28
357 24 28
358 24 28
359 26 -23
360 26 -23
361 50 49
362 50 49
363 50 49
364 38 -8
365 38 -8
366 38 -8
367 38 -8
368 38 -8
369 38 -8
370 14 38
371 14 38
372 14 38
373 14 38
374 14 38
375 14 38
376 14 38
377 14 38
378 -5 46
379 -5 46
380 -5 46
381 -5 46
382 -5 46
383 -5 46
384 -5 46
385 39 -47
386 39 -47
387 39 -47
388 39 -47
389 39 -47
390 1 29
391 1 29
392 1 29
393 1 29
394 -14 -13
395 -14 -13
396 -14 -13
397 -14 -13
398 -14 -13
399 11 42
400 11 42
401 11 42
402 11 42
403 11 42
404 11 -48
405 11 -48
406 11 -48
407 11 -48
408 11 -48
409 11 -48
410 -44 -48
411 -44 -48
412 -44 -48
413 -44 -48
414 -44 -48
415 -37 23
416 -37 23
417 -37 23
418 -37 23
419 -37 23
420 -37 23
421 -37 23
422 46 48
423 46 48
424 46 48
425 46 48
426 46 48
427 46 48
428 -28 16
429 -28 16
430 -28 16
431 -29 10
432 -29 10
433 -29 10
434 -29 10
435 -29 10
436 -29 10
437 -42 -30
438 -42 -30
439 -42 -30
440 -42 -30
441 -6 -2
442 -6 -2
443 -6 -2
444 -6 -2
445 -10 32
446 -10 32
447 -10 32
448 -10 32
449 -10 32
450 -10 32
451 -10 32
452 -10 32
453 48 -37
454 48 -37
455 48 -37
456 48 -37
457 -16 -25
458 -16 -25
459 -16 -25
460 -16 -25
461 1 11
462 1 11
463 40 34
464 40 34
465 40 34
466 40 34
467 40 34
468 10 -9
469 10 -9
470 10 -9
471 10 -9
472 10 -9
473 10 -9
474 10 -9
475 -20 44
476 -20 44
DEMAND_SECTION
1 0
2 40
3 40
4 10
5 1
6 20
7 10
8 1
9 40
10 40
11 10
12 1
13 20
14 10
15 2
16 2
17 1
18 40
19 2
20 2
21 2
22 2
23 40
24 20
25 10
26 2
27 1
28 40
29 10
30 2
31 2
32 40
33 40
34 10
35 2
36 2
37 1
38 40
39 20
40 10
41 1
42 40
43 40
44 20
45 10
46 2
47 20
48 2
49 2
50 2
51 1
52 40
53 2
54 2
55 2
56 1
57 40
58 10
59 2
60 2
61 1
62 40
63 40
64 10
65 2
66 2
67 2
68 1
69 40
70 10
71 1
72 40
73 2
74 2
75 1
76 20
77 10
78 2
79 2
80 2
81 20
82 2
83 2
84 2
85 2
86 1
87 40
88 20
89 10
90 2
91 40
92 1
93 20
94 10
95 2
96 2
97 2
98 40
99 20
100 1
101 40
102 20
103 10
104 2
105 2
106 1
107 40
108 10
109 2
110 20
111 10
112 1
113 40
114 40
115 10
116 2
117 2
118 1
119 40
120 20
121 10
122 2
123 2
124 40
125 2
126 2
127 2
128 40
129 40
130 10
131 2
132 40
133 40
134 10
135 2
136 2
137 2
138 40
139 10
140 2
141 2
142 2
143 2
144 1
145 40
146 10
147 2
148 1
149 40
150 20
151 2
152 1
153 40
154 20
155 2
156 1
157 40
158 1
159 40
160 10
161 2
162 1
163 40
164 40
165 10
166 20
167 10
168 2
169 2
170 2
171 2
172 1
173 40
174 20
175 10
176 20
177 2
178 2
179 2
180 2
181 1
182 40
183 20
184 10
185 2
186 2
187 40
188 40
189 40
190 40
191 1
192 40
193 40
194 10
195 2
196 2
197 2
198 2
199 1
200 20
201 10
202 2
203 2
204 40
205 20
206 2
207 2
208 2
209 2
210 20
211 10
212 2
213 1
214 20
215 10
216 2
217 1
218 20
219 10
220 2
221 2
222 2
223 2
224 40
225 40
226 2
227 40
228 2
229 2
230 2
231 1
232 20
233 2
234 2
235 2
236 1
237 20
238 10
239 2
240 2
241 2
242 2
243 40
244 40
245 2
246 2
247 2
248 1
249 20
250 2
251 2
252 1
253 40
254 10
255 2
256 40
257 40
258 20
259 20
260 10
261 2
262 2
263 1
264 20
265 10
266 2
267 2
268 2
269 1
270 40
271 10
272 2
273 2
274 1
275 40
276 20
277 10
278 2
279 2
280 2
281 1
282 20
283 10
284 2
285 2
286 2
287 1
288 40
289 20
290 10
291 2
292 1
293 20
294 2
295 2
296 1
297 40
298 20
299 2
300 2
301 1
302 40
303 40
304 10
305 1
306 20
307 2
308 2
309 2
310 2
311 1
312 40
313 20
314 2
315 2
316 2
317 40
318 20
319 10
320 2
321 2
322 2
323 1
324 40
325 20
326 10
327 2
328 2
329 2
330 1
331 40
332 20
333 2
334 2
335 2
336 1
337 40
338 20
339 2
340 2
341 40
342 10
343 2
344 2
345 2
346 2
347 1
348 40
349 20
350 10
351 2
352 2
353 1
354 40
355 40
356 10
357 2
358 2
359 20
360 10
361 40
362 10
363 1
364 40
365 20
366 10
367 2
368 2
369 1
370 40
371 40
372 10
373 2
374 2
375 2
376 2
377 1
378 40
379 10
380 2
381 2
382 2
383 2
384 1
385 20
386 10
387 2
388 2
389 1
390 20
391 2
392 2
393 1
394 20
395 2
396 2
397 2
398 1
399 40
400 40
401 10
402 2
403 2
404 40
405 20
406 2
407 2
408 2
409 1
410 40
411 40
412 2
413 2
414 1
415 40
416 40
417 2
418 2
419 2
420 2
421 1
422 20
423 10
424 2
425 2
426 2
427 1
428 40
429 40
430 2
431 20
432 2
433 2
434 2
435 2
436 1
437 40
438 40
439 2
440 1
441 20
442 2
443 2
444 2
445 40
446 40
447 10
448 2
449 2
450 2
451 2
452 1
453 40
454 20
455 10
456 1
457 20
458 10
459 2
460 1
461 40
462 20
463 40
464 40
465 2
466 2
467 1
468 40
469 40
470 10
471 2
472 2
473 2
474 1
475 40
476 1
DEPOT_SECTION
1
-1
EOF