SDVRP instances/custom_instances/p03_14_split0.sol
475 -1 4 3 2 165 171 168 170 166 167 169 403 407 404 405 408 406 -10 9 11 8 399 402 401 398 400 373 371 376 -15 16 14 13 12 430 433 434 432 435 431 148 151 150 427 428 429 -23 22 24 25 26 219 222 220 218 221 217 243 245 247 242 244 246 -27 30 28 29 124 125 126 123 331 332 334 335 333 330 -33 35 311 313 312 314 315 456 457 459 164 163 162 -42 383 380 378 377 382 379 381 155 152 154 153 202 199 201 200 391 -50 47 49 48 46 32 34 36 31 184 182 185 183 181 -52 53 51 55 54 412 411 410 409 413 106 108 294 293 292 295 -56 60 59 58 57 195 198 191 194 197 192 193 196 132 136 135 -64 62 65 67 63 61 66 173 174 172 358 359 -78 79 77 75 76 474 475 17 20 19 18 21 147 144 145 146 -83 84 82 81 85 80 360 361 362 422 426 425 423 424 421 225 224 223 -91 90 130 128 129 127 88 87 95 92 94 -96 93 89 86 363 366 364 365 118 121 119 120 122 -109 111 110 414 418 416 420 417 415 419 204 139 141 138 137 143 140 142 -116 113 112 115 114 117 446 451 448 445 450 449 444 447 -134 131 133 105 101 102 100 103 104 44 43 45 440 441 443 442 -149 98 99 97 320 319 318 316 321 322 317 240 236 237 238 241 239 -157 156 300 296 297 187 186 283 285 233 232 235 234 473 471 -161 159 160 158 281 284 282 286 231 472 469 468 467 470 -189 190 188 37 39 38 40 265 267 268 266 263 264 -207 208 206 203 205 74 72 73 71 276 277 274 279 275 278 280 248 250 249 251 -210 212 209 211 355 357 353 354 356 307 305 306 310 259 258 260 262 261 -216 215 213 214 325 329 326 323 328 324 327 462 463 464 465 466 309 308 -229 228 227 230 226 374 369 372 375 370 461 460 -269 272 271 273 270 453 452 455 454 6 5 7 388 385 386 387 384 299 298 -290 291 287 288 289 41 339 336 338 337 392 389 390 -302 303 304 301 255 257 256 367 368 -351 347 350 348 349 352 177 175 180 178 179 176 439 437 438 436 397 395 -394 393 396 107 340 346 343 345 344 341 342 254 252 253 69 70 68 458 0 





OBJ=
3008.299
BEST_KNOWN=
0.000